c This DIMACS format CNF file was generated by SatSolver.cpp
c Do not edit.
p cnf 147 356
1 22 43 64 85 106 127 0
2 23 44 65 86 107 128 0
3 24 45 66 87 108 129 0
4 25 46 67 88 109 130 0
5 26 47 68 89 110 131 0
6 27 48 69 90 111 132 0
7 28 49 70 91 112 133 0
8 29 50 71 92 113 134 0
9 30 51 72 93 114 135 0
10 31 52 73 94 115 136 0
11 32 53 74 95 116 137 0
12 33 54 75 96 117 138 0
13 34 55 76 97 118 139 0
14 35 56 77 98 119 140 0
15 36 57 78 99 120 141 0
16 37 58 79 100 121 142 0
17 38 59 80 101 122 143 0
18 39 60 81 102 123 144 0
19 40 61 82 103 124 145 0
20 41 62 83 104 125 146 0
21 42 63 84 105 126 147 0
1 -22 -43 -64 -85 -106 -127 0
1 -22 -43 -64 -85 -106 -127 22 -1 -43 -64 -85 -106 -127 0
1 -22 -43 -64 -85 -106 -127 22 -1 -43 -64 -85 -106 -127 43 -1 -22 -64 -85 -106 -127 0
1 -22 -43 -64 -85 -106 -127 22 -1 -43 -64 -85 -106 -127 43 -1 -22 -64 -85 -106 -127 64 -1 -22 -43 -85 -106 -127 0
1 -22 -43 -64 -85 -106 -127 22 -1 -43 -64 -85 -106 -127 43 -1 -22 -64 -85 -106 -127 64 -1 -22 -43 -85 -106 -127 85 -1 -22 -43 -64 -106 -127 0
1 -22 -43 -64 -85 -106 -127 22 -1 -43 -64 -85 -106 -127 43 -1 -22 -64 -85 -106 -127 64 -1 -22 -43 -85 -106 -127 85 -1 -22 -43 -64 -106 -127 106 -1 -22 -43 -64 -85 -127 0
1 -22 -43 -64 -85 -106 -127 22 -1 -43 -64 -85 -106 -127 43 -1 -22 -64 -85 -106 -127 64 -1 -22 -43 -85 -106 -127 85 -1 -22 -43 -64 -106 -127 106 -1 -22 -43 -64 -85 -127 127 -1 -22 -43 -64 -85 -106 0
2 -23 -44 -65 -86 -107 -128 0
2 -23 -44 -65 -86 -107 -128 23 -2 -44 -65 -86 -107 -128 0
2 -23 -44 -65 -86 -107 -128 23 -2 -44 -65 -86 -107 -128 44 -2 -23 -65 -86 -107 -128 0
2 -23 -44 -65 -86 -107 -128 23 -2 -44 -65 -86 -107 -128 44 -2 -23 -65 -86 -107 -128 65 -2 -23 -44 -86 -107 -128 0
2 -23 -44 -65 -86 -107 -128 23 -2 -44 -65 -86 -107 -128 44 -2 -23 -65 -86 -107 -128 65 -2 -23 -44 -86 -107 -128 86 -2 -23 -44 -65 -107 -128 0
2 -23 -44 -65 -86 -107 -128 23 -2 -44 -65 -86 -107 -128 44 -2 -23 -65 -86 -107 -128 65 -2 -23 -44 -86 -107 -128 86 -2 -23 -44 -65 -107 -128 107 -2 -23 -44 -65 -86 -128 0
2 -23 -44 -65 -86 -107 -128 23 -2 -44 -65 -86 -107 -128 44 -2 -23 -65 -86 -107 -128 65 -2 -23 -44 -86 -107 -128 86 -2 -23 -44 -65 -107 -128 107 -2 -23 -44 -65 -86 -128 128 -2 -23 -44 -65 -86 -107 0
3 -24 -45 -66 -87 -108 -129 0
3 -24 -45 -66 -87 -108 -129 24 -3 -45 -66 -87 -108 -129 0
3 -24 -45 -66 -87 -108 -129 24 -3 -45 -66 -87 -108 -129 45 -3 -24 -66 -87 -108 -129 0
3 -24 -45 -66 -87 -108 -129 24 -3 -45 -66 -87 -108 -129 45 -3 -24 -66 -87 -108 -129 66 -3 -24 -45 -87 -108 -129 0
3 -24 -45 -66 -87 -108 -129 24 -3 -45 -66 -87 -108 -129 45 -3 -24 -66 -87 -108 -129 66 -3 -24 -45 -87 -108 -129 87 -3 -24 -45 -66 -108 -129 0
3 -24 -45 -66 -87 -108 -129 24 -3 -45 -66 -87 -108 -129 45 -3 -24 -66 -87 -108 -129 66 -3 -24 -45 -87 -108 -129 87 -3 -24 -45 -66 -108 -129 108 -3 -24 -45 -66 -87 -129 0
3 -24 -45 -66 -87 -108 -129 24 -3 -45 -66 -87 -108 -129 45 -3 -24 -66 -87 -108 -129 66 -3 -24 -45 -87 -108 -129 87 -3 -24 -45 -66 -108 -129 108 -3 -24 -45 -66 -87 -129 129 -3 -24 -45 -66 -87 -108 0
4 -25 -46 -67 -88 -109 -130 0
4 -25 -46 -67 -88 -109 -130 25 -4 -46 -67 -88 -109 -130 0
4 -25 -46 -67 -88 -109 -130 25 -4 -46 -67 -88 -109 -130 46 -4 -25 -67 -88 -109 -130 0
4 -25 -46 -67 -88 -109 -130 25 -4 -46 -67 -88 -109 -130 46 -4 -25 -67 -88 -109 -130 67 -4 -25 -46 -88 -109 -130 0
4 -25 -46 -67 -88 -109 -130 25 -4 -46 -67 -88 -109 -130 46 -4 -25 -67 -88 -109 -130 67 -4 -25 -46 -88 -109 -130 88 -4 -25 -46 -67 -109 -130 0
4 -25 -46 -67 -88 -109 -130 25 -4 -46 -67 -88 -109 -130 46 -4 -25 -67 -88 -109 -130 67 -4 -25 -46 -88 -109 -130 88 -4 -25 -46 -67 -109 -130 109 -4 -25 -46 -67 -88 -130 0
4 -25 -46 -67 -88 -109 -130 25 -4 -46 -67 -88 -109 -130 46 -4 -25 -67 -88 -109 -130 67 -4 -25 -46 -88 -109 -130 88 -4 -25 -46 -67 -109 -130 109 -4 -25 -46 -67 -88 -130 130 -4 -25 -46 -67 -88 -109 0
5 -26 -47 -68 -89 -110 -131 0
5 -26 -47 -68 -89 -110 -131 26 -5 -47 -68 -89 -110 -131 0
5 -26 -47 -68 -89 -110 -131 26 -5 -47 -68 -89 -110 -131 47 -5 -26 -68 -89 -110 -131 0
5 -26 -47 -68 -89 -110 -131 26 -5 -47 -68 -89 -110 -131 47 -5 -26 -68 -89 -110 -131 68 -5 -26 -47 -89 -110 -131 0
5 -26 -47 -68 -89 -110 -131 26 -5 -47 -68 -89 -110 -131 47 -5 -26 -68 -89 -110 -131 68 -5 -26 -47 -89 -110 -131 89 -5 -26 -47 -68 -110 -131 0
5 -26 -47 -68 -89 -110 -131 26 -5 -47 -68 -89 -110 -131 47 -5 -26 -68 -89 -110 -131 68 -5 -26 -47 -89 -110 -131 89 -5 -26 -47 -68 -110 -131 110 -5 -26 -47 -68 -89 -131 0
5 -26 -47 -68 -89 -110 -131 26 -5 -47 -68 -89 -110 -131 47 -5 -26 -68 -89 -110 -131 68 -5 -26 -47 -89 -110 -131 89 -5 -26 -47 -68 -110 -131 110 -5 -26 -47 -68 -89 -131 131 -5 -26 -47 -68 -89 -110 0
6 -27 -48 -69 -90 -111 -132 0
6 -27 -48 -69 -90 -111 -132 27 -6 -48 -69 -90 -111 -132 0
6 -27 -48 -69 -90 -111 -132 27 -6 -48 -69 -90 -111 -132 48 -6 -27 -69 -90 -111 -132 0
6 -27 -48 -69 -90 -111 -132 27 -6 -48 -69 -90 -111 -132 48 -6 -27 -69 -90 -111 -132 69 -6 -27 -48 -90 -111 -132 0
6 -27 -48 -69 -90 -111 -132 27 -6 -48 -69 -90 -111 -132 48 -6 -27 -69 -90 -111 -132 69 -6 -27 -48 -90 -111 -132 90 -6 -27 -48 -69 -111 -132 0
6 -27 -48 -69 -90 -111 -132 27 -6 -48 -69 -90 -111 -132 48 -6 -27 -69 -90 -111 -132 69 -6 -27 -48 -90 -111 -132 90 -6 -27 -48 -69 -111 -132 111 -6 -27 -48 -69 -90 -132 0
6 -27 -48 -69 -90 -111 -132 27 -6 -48 -69 -90 -111 -132 48 -6 -27 -69 -90 -111 -132 69 -6 -27 -48 -90 -111 -132 90 -6 -27 -48 -69 -111 -132 111 -6 -27 -48 -69 -90 -132 132 -6 -27 -48 -69 -90 -111 0
7 -28 -49 -70 -91 -112 -133 0
7 -28 -49 -70 -91 -112 -133 28 -7 -49 -70 -91 -112 -133 0
7 -28 -49 -70 -91 -112 -133 28 -7 -49 -70 -91 -112 -133 49 -7 -28 -70 -91 -112 -133 0
7 -28 -49 -70 -91 -112 -133 28 -7 -49 -70 -91 -112 -133 49 -7 -28 -70 -91 -112 -133 70 -7 -28 -49 -91 -112 -133 0
7 -28 -49 -70 -91 -112 -133 28 -7 -49 -70 -91 -112 -133 49 -7 -28 -70 -91 -112 -133 70 -7 -28 -49 -91 -112 -133 91 -7 -28 -49 -70 -112 -133 0
7 -28 -49 -70 -91 -112 -133 28 -7 -49 -70 -91 -112 -133 49 -7 -28 -70 -91 -112 -133 70 -7 -28 -49 -91 -112 -133 91 -7 -28 -49 -70 -112 -133 112 -7 -28 -49 -70 -91 -133 0
7 -28 -49 -70 -91 -112 -133 28 -7 -49 -70 -91 -112 -133 49 -7 -28 -70 -91 -112 -133 70 -7 -28 -49 -91 -112 -133 91 -7 -28 -49 -70 -112 -133 112 -7 -28 -49 -70 -91 -133 133 -7 -28 -49 -70 -91 -112 0
8 -29 -50 -71 -92 -113 -134 0
8 -29 -50 -71 -92 -113 -134 29 -8 -50 -71 -92 -113 -134 0
8 -29 -50 -71 -92 -113 -134 29 -8 -50 -71 -92 -113 -134 50 -8 -29 -71 -92 -113 -134 0
8 -29 -50 -71 -92 -113 -134 29 -8 -50 -71 -92 -113 -134 50 -8 -29 -71 -92 -113 -134 71 -8 -29 -50 -92 -113 -134 0
8 -29 -50 -71 -92 -113 -134 29 -8 -50 -71 -92 -113 -134 50 -8 -29 -71 -92 -113 -134 71 -8 -29 -50 -92 -113 -134 92 -8 -29 -50 -71 -113 -134 0
8 -29 -50 -71 -92 -113 -134 29 -8 -50 -71 -92 -113 -134 50 -8 -29 -71 -92 -113 -134 71 -8 -29 -50 -92 -113 -134 92 -8 -29 -50 -71 -113 -134 113 -8 -29 -50 -71 -92 -134 0
8 -29 -50 -71 -92 -113 -134 29 -8 -50 -71 -92 -113 -134 50 -8 -29 -71 -92 -113 -134 71 -8 -29 -50 -92 -113 -134 92 -8 -29 -50 -71 -113 -134 113 -8 -29 -50 -71 -92 -134 134 -8 -29 -50 -71 -92 -113 0
9 -30 -51 -72 -93 -114 -135 0
9 -30 -51 -72 -93 -114 -135 30 -9 -51 -72 -93 -114 -135 0
9 -30 -51 -72 -93 -114 -135 30 -9 -51 -72 -93 -114 -135 51 -9 -30 -72 -93 -114 -135 0
9 -30 -51 -72 -93 -114 -135 30 -9 -51 -72 -93 -114 -135 51 -9 -30 -72 -93 -114 -135 72 -9 -30 -51 -93 -114 -135 0
9 -30 -51 -72 -93 -114 -135 30 -9 -51 -72 -93 -114 -135 51 -9 -30 -72 -93 -114 -135 72 -9 -30 -51 -93 -114 -135 93 -9 -30 -51 -72 -114 -135 0
9 -30 -51 -72 -93 -114 -135 30 -9 -51 -72 -93 -114 -135 51 -9 -30 -72 -93 -114 -135 72 -9 -30 -51 -93 -114 -135 93 -9 -30 -51 -72 -114 -135 114 -9 -30 -51 -72 -93 -135 0
9 -30 -51 -72 -93 -114 -135 30 -9 -51 -72 -93 -114 -135 51 -9 -30 -72 -93 -114 -135 72 -9 -30 -51 -93 -114 -135 93 -9 -30 -51 -72 -114 -135 114 -9 -30 -51 -72 -93 -135 135 -9 -30 -51 -72 -93 -114 0
10 -31 -52 -73 -94 -115 -136 0
10 -31 -52 -73 -94 -115 -136 31 -10 -52 -73 -94 -115 -136 0
10 -31 -52 -73 -94 -115 -136 31 -10 -52 -73 -94 -115 -136 52 -10 -31 -73 -94 -115 -136 0
10 -31 -52 -73 -94 -115 -136 31 -10 -52 -73 -94 -115 -136 52 -10 -31 -73 -94 -115 -136 73 -10 -31 -52 -94 -115 -136 0
10 -31 -52 -73 -94 -115 -136 31 -10 -52 -73 -94 -115 -136 52 -10 -31 -73 -94 -115 -136 73 -10 -31 -52 -94 -115 -136 94 -10 -31 -52 -73 -115 -136 0
10 -31 -52 -73 -94 -115 -136 31 -10 -52 -73 -94 -115 -136 52 -10 -31 -73 -94 -115 -136 73 -10 -31 -52 -94 -115 -136 94 -10 -31 -52 -73 -115 -136 115 -10 -31 -52 -73 -94 -136 0
10 -31 -52 -73 -94 -115 -136 31 -10 -52 -73 -94 -115 -136 52 -10 -31 -73 -94 -115 -136 73 -10 -31 -52 -94 -115 -136 94 -10 -31 -52 -73 -115 -136 115 -10 -31 -52 -73 -94 -136 136 -10 -31 -52 -73 -94 -115 0
11 -32 -53 -74 -95 -116 -137 0
11 -32 -53 -74 -95 -116 -137 32 -11 -53 -74 -95 -116 -137 0
11 -32 -53 -74 -95 -116 -137 32 -11 -53 -74 -95 -116 -137 53 -11 -32 -74 -95 -116 -137 0
11 -32 -53 -74 -95 -116 -137 32 -11 -53 -74 -95 -116 -137 53 -11 -32 -74 -95 -116 -137 74 -11 -32 -53 -95 -116 -137 0
11 -32 -53 -74 -95 -116 -137 32 -11 -53 -74 -95 -116 -137 53 -11 -32 -74 -95 -116 -137 74 -11 -32 -53 -95 -116 -137 95 -11 -32 -53 -74 -116 -137 0
11 -32 -53 -74 -95 -116 -137 32 -11 -53 -74 -95 -116 -137 53 -11 -32 -74 -95 -116 -137 74 -11 -32 -53 -95 -116 -137 95 -11 -32 -53 -74 -116 -137 116 -11 -32 -53 -74 -95 -137 0
11 -32 -53 -74 -95 -116 -137 32 -11 -53 -74 -95 -116 -137 53 -11 -32 -74 -95 -116 -137 74 -11 -32 -53 -95 -116 -137 95 -11 -32 -53 -74 -116 -137 116 -11 -32 -53 -74 -95 -137 137 -11 -32 -53 -74 -95 -116 0
12 -33 -54 -75 -96 -117 -138 0
12 -33 -54 -75 -96 -117 -138 33 -12 -54 -75 -96 -117 -138 0
12 -33 -54 -75 -96 -117 -138 33 -12 -54 -75 -96 -117 -138 54 -12 -33 -75 -96 -117 -138 0
12 -33 -54 -75 -96 -117 -138 33 -12 -54 -75 -96 -117 -138 54 -12 -33 -75 -96 -117 -138 75 -12 -33 -54 -96 -117 -138 0
12 -33 -54 -75 -96 -117 -138 33 -12 -54 -75 -96 -117 -138 54 -12 -33 -75 -96 -117 -138 75 -12 -33 -54 -96 -117 -138 96 -12 -33 -54 -75 -117 -138 0
12 -33 -54 -75 -96 -117 -138 33 -12 -54 -75 -96 -117 -138 54 -12 -33 -75 -96 -117 -138 75 -12 -33 -54 -96 -117 -138 96 -12 -33 -54 -75 -117 -138 117 -12 -33 -54 -75 -96 -138 0
12 -33 -54 -75 -96 -117 -138 33 -12 -54 -75 -96 -117 -138 54 -12 -33 -75 -96 -117 -138 75 -12 -33 -54 -96 -117 -138 96 -12 -33 -54 -75 -117 -138 117 -12 -33 -54 -75 -96 -138 138 -12 -33 -54 -75 -96 -117 0
13 -34 -55 -76 -97 -118 -139 0
13 -34 -55 -76 -97 -118 -139 34 -13 -55 -76 -97 -118 -139 0
13 -34 -55 -76 -97 -118 -139 34 -13 -55 -76 -97 -118 -139 55 -13 -34 -76 -97 -118 -139 0
13 -34 -55 -76 -97 -118 -139 34 -13 -55 -76 -97 -118 -139 55 -13 -34 -76 -97 -118 -139 76 -13 -34 -55 -97 -118 -139 0
13 -34 -55 -76 -97 -118 -139 34 -13 -55 -76 -97 -118 -139 55 -13 -34 -76 -97 -118 -139 76 -13 -34 -55 -97 -118 -139 97 -13 -34 -55 -76 -118 -139 0
13 -34 -55 -76 -97 -118 -139 34 -13 -55 -76 -97 -118 -139 55 -13 -34 -76 -97 -118 -139 76 -13 -34 -55 -97 -118 -139 97 -13 -34 -55 -76 -118 -139 118 -13 -34 -55 -76 -97 -139 0
13 -34 -55 -76 -97 -118 -139 34 -13 -55 -76 -97 -118 -139 55 -13 -34 -76 -97 -118 -139 76 -13 -34 -55 -97 -118 -139 97 -13 -34 -55 -76 -118 -139 118 -13 -34 -55 -76 -97 -139 139 -13 -34 -55 -76 -97 -118 0
14 -35 -56 -77 -98 -119 -140 0
14 -35 -56 -77 -98 -119 -140 35 -14 -56 -77 -98 -119 -140 0
14 -35 -56 -77 -98 -119 -140 35 -14 -56 -77 -98 -119 -140 56 -14 -35 -77 -98 -119 -140 0
14 -35 -56 -77 -98 -119 -140 35 -14 -56 -77 -98 -119 -140 56 -14 -35 -77 -98 -119 -140 77 -14 -35 -56 -98 -119 -140 0
14 -35 -56 -77 -98 -119 -140 35 -14 -56 -77 -98 -119 -140 56 -14 -35 -77 -98 -119 -140 77 -14 -35 -56 -98 -119 -140 98 -14 -35 -56 -77 -119 -140 0
14 -35 -56 -77 -98 -119 -140 35 -14 -56 -77 -98 -119 -140 56 -14 -35 -77 -98 -119 -140 77 -14 -35 -56 -98 -119 -140 98 -14 -35 -56 -77 -119 -140 119 -14 -35 -56 -77 -98 -140 0
14 -35 -56 -77 -98 -119 -140 35 -14 -56 -77 -98 -119 -140 56 -14 -35 -77 -98 -119 -140 77 -14 -35 -56 -98 -119 -140 98 -14 -35 -56 -77 -119 -140 119 -14 -35 -56 -77 -98 -140 140 -14 -35 -56 -77 -98 -119 0
15 -36 -57 -78 -99 -120 -141 0
15 -36 -57 -78 -99 -120 -141 36 -15 -57 -78 -99 -120 -141 0
15 -36 -57 -78 -99 -120 -141 36 -15 -57 -78 -99 -120 -141 57 -15 -36 -78 -99 -120 -141 0
15 -36 -57 -78 -99 -120 -141 36 -15 -57 -78 -99 -120 -141 57 -15 -36 -78 -99 -120 -141 78 -15 -36 -57 -99 -120 -141 0
15 -36 -57 -78 -99 -120 -141 36 -15 -57 -78 -99 -120 -141 57 -15 -36 -78 -99 -120 -141 78 -15 -36 -57 -99 -120 -141 99 -15 -36 -57 -78 -120 -141 0
15 -36 -57 -78 -99 -120 -141 36 -15 -57 -78 -99 -120 -141 57 -15 -36 -78 -99 -120 -141 78 -15 -36 -57 -99 -120 -141 99 -15 -36 -57 -78 -120 -141 120 -15 -36 -57 -78 -99 -141 0
15 -36 -57 -78 -99 -120 -141 36 -15 -57 -78 -99 -120 -141 57 -15 -36 -78 -99 -120 -141 78 -15 -36 -57 -99 -120 -141 99 -15 -36 -57 -78 -120 -141 120 -15 -36 -57 -78 -99 -141 141 -15 -36 -57 -78 -99 -120 0
16 -37 -58 -79 -100 -121 -142 0
16 -37 -58 -79 -100 -121 -142 37 -16 -58 -79 -100 -121 -142 0
16 -37 -58 -79 -100 -121 -142 37 -16 -58 -79 -100 -121 -142 58 -16 -37 -79 -100 -121 -142 0
16 -37 -58 -79 -100 -121 -142 37 -16 -58 -79 -100 -121 -142 58 -16 -37 -79 -100 -121 -142 79 -16 -37 -58 -100 -121 -142 0
16 -37 -58 -79 -100 -121 -142 37 -16 -58 -79 -100 -121 -142 58 -16 -37 -79 -100 -121 -142 79 -16 -37 -58 -100 -121 -142 100 -16 -37 -58 -79 -121 -142 0
16 -37 -58 -79 -100 -121 -142 37 -16 -58 -79 -100 -121 -142 58 -16 -37 -79 -100 -121 -142 79 -16 -37 -58 -100 -121 -142 100 -16 -37 -58 -79 -121 -142 121 -16 -37 -58 -79 -100 -142 0
16 -37 -58 -79 -100 -121 -142 37 -16 -58 -79 -100 -121 -142 58 -16 -37 -79 -100 -121 -142 79 -16 -37 -58 -100 -121 -142 100 -16 -37 -58 -79 -121 -142 121 -16 -37 -58 -79 -100 -142 142 -16 -37 -58 -79 -100 -121 0
17 -38 -59 -80 -101 -122 -143 0
17 -38 -59 -80 -101 -122 -143 38 -17 -59 -80 -101 -122 -143 0
17 -38 -59 -80 -101 -122 -143 38 -17 -59 -80 -101 -122 -143 59 -17 -38 -80 -101 -122 -143 0
17 -38 -59 -80 -101 -122 -143 38 -17 -59 -80 -101 -122 -143 59 -17 -38 -80 -101 -122 -143 80 -17 -38 -59 -101 -122 -143 0
17 -38 -59 -80 -101 -122 -143 38 -17 -59 -80 -101 -122 -143 59 -17 -38 -80 -101 -122 -143 80 -17 -38 -59 -101 -122 -143 101 -17 -38 -59 -80 -122 -143 0
17 -38 -59 -80 -101 -122 -143 38 -17 -59 -80 -101 -122 -143 59 -17 -38 -80 -101 -122 -143 80 -17 -38 -59 -101 -122 -143 101 -17 -38 -59 -80 -122 -143 122 -17 -38 -59 -80 -101 -143 0
17 -38 -59 -80 -101 -122 -143 38 -17 -59 -80 -101 -122 -143 59 -17 -38 -80 -101 -122 -143 80 -17 -38 -59 -101 -122 -143 101 -17 -38 -59 -80 -122 -143 122 -17 -38 -59 -80 -101 -143 143 -17 -38 -59 -80 -101 -122 0
18 -39 -60 -81 -102 -123 -144 0
18 -39 -60 -81 -102 -123 -144 39 -18 -60 -81 -102 -123 -144 0
18 -39 -60 -81 -102 -123 -144 39 -18 -60 -81 -102 -123 -144 60 -18 -39 -81 -102 -123 -144 0
18 -39 -60 -81 -102 -123 -144 39 -18 -60 -81 -102 -123 -144 60 -18 -39 -81 -102 -123 -144 81 -18 -39 -60 -102 -123 -144 0
18 -39 -60 -81 -102 -123 -144 39 -18 -60 -81 -102 -123 -144 60 -18 -39 -81 -102 -123 -144 81 -18 -39 -60 -102 -123 -144 102 -18 -39 -60 -81 -123 -144 0
18 -39 -60 -81 -102 -123 -144 39 -18 -60 -81 -102 -123 -144 60 -18 -39 -81 -102 -123 -144 81 -18 -39 -60 -102 -123 -144 102 -18 -39 -60 -81 -123 -144 123 -18 -39 -60 -81 -102 -144 0
18 -39 -60 -81 -102 -123 -144 39 -18 -60 -81 -102 -123 -144 60 -18 -39 -81 -102 -123 -144 81 -18 -39 -60 -102 -123 -144 102 -18 -39 -60 -81 -123 -144 123 -18 -39 -60 -81 -102 -144 144 -18 -39 -60 -81 -102 -123 0
19 -40 -61 -82 -103 -124 -145 0
19 -40 -61 -82 -103 -124 -145 40 -19 -61 -82 -103 -124 -145 0
19 -40 -61 -82 -103 -124 -145 40 -19 -61 -82 -103 -124 -145 61 -19 -40 -82 -103 -124 -145 0
19 -40 -61 -82 -103 -124 -145 40 -19 -61 -82 -103 -124 -145 61 -19 -40 -82 -103 -124 -145 82 -19 -40 -61 -103 -124 -145 0
19 -40 -61 -82 -103 -124 -145 40 -19 -61 -82 -103 -124 -145 61 -19 -40 -82 -103 -124 -145 82 -19 -40 -61 -103 -124 -145 103 -19 -40 -61 -82 -124 -145 0
19 -40 -61 -82 -103 -124 -145 40 -19 -61 -82 -103 -124 -145 61 -19 -40 -82 -103 -124 -145 82 -19 -40 -61 -103 -124 -145 103 -19 -40 -61 -82 -124 -145 124 -19 -40 -61 -82 -103 -145 0
19 -40 -61 -82 -103 -124 -145 40 -19 -61 -82 -103 -124 -145 61 -19 -40 -82 -103 -124 -145 82 -19 -40 -61 -103 -124 -145 103 -19 -40 -61 -82 -124 -145 124 -19 -40 -61 -82 -103 -145 145 -19 -40 -61 -82 -103 -124 0
20 -41 -62 -83 -104 -125 -146 0
20 -41 -62 -83 -104 -125 -146 41 -20 -62 -83 -104 -125 -146 0
20 -41 -62 -83 -104 -125 -146 41 -20 -62 -83 -104 -125 -146 62 -20 -41 -83 -104 -125 -146 0
20 -41 -62 -83 -104 -125 -146 41 -20 -62 -83 -104 -125 -146 62 -20 -41 -83 -104 -125 -146 83 -20 -41 -62 -104 -125 -146 0
20 -41 -62 -83 -104 -125 -146 41 -20 -62 -83 -104 -125 -146 62 -20 -41 -83 -104 -125 -146 83 -20 -41 -62 -104 -125 -146 104 -20 -41 -62 -83 -125 -146 0
20 -41 -62 -83 -104 -125 -146 41 -20 -62 -83 -104 -125 -146 62 -20 -41 -83 -104 -125 -146 83 -20 -41 -62 -104 -125 -146 104 -20 -41 -62 -83 -125 -146 125 -20 -41 -62 -83 -104 -146 0
20 -41 -62 -83 -104 -125 -146 41 -20 -62 -83 -104 -125 -146 62 -20 -41 -83 -104 -125 -146 83 -20 -41 -62 -104 -125 -146 104 -20 -41 -62 -83 -125 -146 125 -20 -41 -62 -83 -104 -146 146 -20 -41 -62 -83 -104 -125 0
21 -42 -63 -84 -105 -126 -147 0
21 -42 -63 -84 -105 -126 -147 42 -21 -63 -84 -105 -126 -147 0
21 -42 -63 -84 -105 -126 -147 42 -21 -63 -84 -105 -126 -147 63 -21 -42 -84 -105 -126 -147 0
21 -42 -63 -84 -105 -126 -147 42 -21 -63 -84 -105 -126 -147 63 -21 -42 -84 -105 -126 -147 84 -21 -42 -63 -105 -126 -147 0
21 -42 -63 -84 -105 -126 -147 42 -21 -63 -84 -105 -126 -147 63 -21 -42 -84 -105 -126 -147 84 -21 -42 -63 -105 -126 -147 105 -21 -42 -63 -84 -126 -147 0
21 -42 -63 -84 -105 -126 -147 42 -21 -63 -84 -105 -126 -147 63 -21 -42 -84 -105 -126 -147 84 -21 -42 -63 -105 -126 -147 105 -21 -42 -63 -84 -126 -147 126 -21 -42 -63 -84 -105 -147 0
21 -42 -63 -84 -105 -126 -147 42 -21 -63 -84 -105 -126 -147 63 -21 -42 -84 -105 -126 -147 84 -21 -42 -63 -105 -126 -147 105 -21 -42 -63 -84 -126 -147 126 -21 -42 -63 -84 -105 -147 147 -21 -42 -63 -84 -105 -126 0
127 128 129 130 131 132 0
133 134 135 136 137 138 0
139 140 141 142 143 144 145 146 147 0
127 -128 127 -129 127 -130 127 -131 127 -132 0
128 -127 128 -129 128 -130 128 -131 128 -132 0
129 -127 129 -128 129 -130 129 -131 129 -132 0
130 -127 130 -128 130 -129 130 -131 130 -132 0
131 -127 131 -128 131 -129 131 -130 131 -132 0
132 -127 132 -128 132 -129 132 -130 132 -131 0
133 -134 133 -135 133 -136 133 -137 133 -138 0
134 -133 134 -135 134 -136 134 -137 134 -138 0
135 -133 135 -134 135 -136 135 -137 135 -138 0
136 -133 136 -134 136 -135 136 -137 136 -138 0
137 -133 137 -134 137 -135 137 -136 137 -138 0
138 -133 138 -134 138 -135 138 -136 138 -137 0
139 -140 139 -141 139 -142 139 -143 139 -144 139 -145 139 -146 139 -147 0
140 -139 140 -141 140 -142 140 -143 140 -144 140 -145 140 -146 140 -147 0
141 -139 141 -140 141 -142 141 -143 141 -144 141 -145 141 -146 141 -147 0
142 -139 142 -140 142 -141 142 -143 142 -144 142 -145 142 -146 142 -147 0
143 -139 143 -140 143 -141 143 -142 143 -144 143 -145 143 -146 143 -147 0
144 -139 144 -140 144 -141 144 -142 144 -143 144 -145 144 -146 144 -147 0
145 -139 145 -140 145 -141 145 -142 145 -143 145 -144 145 -146 145 -147 0
146 -139 146 -140 146 -141 146 -142 146 -143 146 -144 146 -145 146 -147 0
147 -139 147 -140 147 -141 147 -142 147 -143 147 -144 147 -145 147 -146 0
6 0
6 0
-27 0
-48 0
-69 0
-90 0
-111 0
20 0
20 0
-41 0
-62 0
-83 0
-104 0
-125 0
21 0
21 0
-42 0
-63 0
-84 0
-105 0
-126 0
26 0
88 95 99 0
40 0
33 0
29 0
61 0
54 0
50 0
85 93 101 0
64 0
56 0
48 0
111 112 122 0
80 0
79 0
69 0
45 50 57 0
104 0
99 0
92 0
-1 0
-6 0
-13 0
20 0
15 0
8 0
6 0
23 0
46 52 59 0
64 71 84 0
88 91 99 0
106 116 120 0
45 49 60 0
-1 0
-5 0
-16 0
20 0
16 0
5 0
35 0
46 49 57 0
67 75 76 0
111 116 123 0
80 0
75 0
68 0
26 32 34 0
102 0
96 0
94 0
-3 0
-9 0
-11 0
-2 0
-9 0
-15 0
19 0
12 0
6 0
40 0
33 0
27 0
61 0
54 0
48 0
82 0
75 0
69 0
97 0
17 0
12 0
10 0
38 0
33 0
31 0
59 0
54 0
52 0
88 95 97 0
61 0
54 0
52 0
-2 0
-9 0
-11 0
19 0
12 0
10 0
40 0
33 0
31 0
61 0
54 0
52 0
103 0
96 0
94 0
45 0
20 0
12 0
2 0
109 116 122 0
40 0
33 0
27 0
61 0
54 0
48 0
82 0
75 0
69 0
21 0
61 0
54 0
44 0
82 0
75 0
65 0
103 0
96 0
86 0
6 0
80 0
75 0
65 0
101 0
96 0
86 0
6 0
101 0
96 0
86 0
67 74 79 0
-2 0
-9 0
-14 0
19 0
12 0
7 0
40 0
33 0
28 0
147 0
